<instance format="XCSP3" type="COP">
  <variables>
    <var id="x" note="x is the number of unused bins"> 0..24 </var>
    <array id="b" note="b[i][j] indicates the weight of the jth object put in the ith bin. It is 0 if there is no object at this place." size="[24][3]"> 0 252..254 256 258 259 261..263 266 273 275 276 280 288 289 294 298 304 307 308 316 319 332 337 343 351 359 363 364 369 373 376 377 380 382 391 397 412 417 426 429 442 443 445 451 453 468 483 </array>
  </variables>
  <constraints>
    <group>
      <mdd>
        <list> %... </list>
        <transitions> (root,0,n3)(root,252,n3)(root,253,n5)(root,254,n6)(root,256,n9)(root,258,n11)(root,259,n13)(root,261,n15)(root,262,n17)(root,263,n19)(root,266,n21)(root,273,n23)(root,275,n24)(root,276,n26)(root,280,n29)(root,288,n31)(root,289,n32)(root,294,n34)(root,298,n36)(root,304,n38)(root,307,n38)(root,308,n41)(root,316,n42)(root,319,n44)(root,332,n47)(root,337,n49)(root,343,n50)(root,351,n51)(root,359,n52)(root,363,n54)(root,364,n55)(root,369,n56)(root,373,n57)(root,376,n58)(root,377,n59)(root,380,n60)(root,382,n61)(root,391,n62)(root,397,n63)(root,412,n64)(root,417,n65)(root,426,n66)(root,429,n67)(root,442,n68)(root,443,n69)(root,445,n70)(root,451,n71)(root,453,n72)(root,468,n73)(root,483,n74)(n3,0,n4)(n4,0,nodeT)(n5,0,n4)(n5,252,n4)(n6,0,n4)(n6,252,n4)(n6,253,n7)(n6,254,n8)(n7,0,nodeT)(n7,252,nodeT)(n8,0,nodeT)(n8,252,nodeT)(n8,253,nodeT)(n9,0,n4)(n9,252,n4)(n9,253,n7)(n9,254,n10)(n10,0,nodeT)(n10,252,nodeT)(n10,253,nodeT)(n10,254,nodeT)(n11,0,n4)(n11,252,n4)(n11,253,n7)(n11,254,n10)(n11,256,n10)(n11,258,n12)(n12,0,nodeT)(n12,252,nodeT)(n12,253,nodeT)(n12,254,nodeT)(n12,256,nodeT)(n13,0,n4)(n13,252,n4)(n13,253,n7)(n13,254,n10)(n13,256,n10)(n13,258,n14)(n13,259,n14)(n14,0,nodeT)(n14,252,nodeT)(n14,253,nodeT)(n14,254,nodeT)(n14,256,nodeT)(n14,258,nodeT)(n15,0,n4)(n15,252,n4)(n15,253,n7)(n15,254,n10)(n15,256,n10)(n15,258,n14)(n15,259,n16)(n15,261,n16)(n16,0,nodeT)(n16,252,nodeT)(n16,253,nodeT)(n16,254,nodeT)(n16,256,nodeT)(n16,258,nodeT)(n16,259,nodeT)(n17,0,n4)(n17,252,n4)(n17,253,n7)(n17,254,n10)(n17,256,n10)(n17,258,n14)(n17,259,n16)(n17,261,n18)(n18,0,nodeT)(n18,252,nodeT)(n18,253,nodeT)(n18,254,nodeT)(n18,256,nodeT)(n18,258,nodeT)(n18,259,nodeT)(n18,261,nodeT)(n19,0,n4)(n19,252,n4)(n19,253,n7)(n19,254,n10)(n19,256,n10)(n19,258,n14)(n19,259,n16)(n19,261,n18)(n19,262,n18)(n19,263,n20)(n20,0,nodeT)(n20,252,nodeT)(n20,253,nodeT)(n20,254,nodeT)(n20,256,nodeT)(n20,258,nodeT)(n20,259,nodeT)(n20,261,nodeT)(n20,262,nodeT)(n21,0,n4)(n21,252,n4)(n21,253,n7)(n21,254,n10)(n21,256,n10)(n21,258,n14)(n21,259,n16)(n21,261,n18)(n21,262,n18)(n21,263,n22)(n22,0,nodeT)(n22,252,nodeT)(n22,253,nodeT)(n22,254,nodeT)(n22,256,nodeT)(n22,258,nodeT)(n22,259,nodeT)(n22,261,nodeT)(n22,262,nodeT)(n22,263,nodeT)(n23,0,n4)(n23,252,n4)(n23,253,n7)(n23,254,n10)(n23,256,n10)(n23,258,n14)(n23,259,n16)(n23,261,n18)(n23,262,n18)(n23,263,n22)(n23,266,n22)(n24,0,n4)(n24,252,n4)(n24,253,n7)(n24,254,n10)(n24,256,n10)(n24,258,n14)(n24,259,n16)(n24,261,n18)(n24,262,n18)(n24,263,n22)(n24,266,n22)(n24,273,n25)(n25,0,nodeT)(n25,252,nodeT)(n25,253,nodeT)(n25,254,nodeT)(n25,256,nodeT)(n25,258,nodeT)(n25,259,nodeT)(n25,261,nodeT)(n25,262,nodeT)(n25,263,nodeT)(n25,266,nodeT)(n26,0,n4)(n26,252,n4)(n26,253,n7)(n26,254,n10)(n26,256,n10)(n26,258,n14)(n26,259,n16)(n26,261,n18)(n26,262,n18)(n26,263,n22)(n26,266,n22)(n26,273,n25)(n26,275,n27)(n26,276,n28)(n27,0,nodeT)(n27,252,nodeT)(n27,253,nodeT)(n27,254,nodeT)(n27,256,nodeT)(n27,258,nodeT)(n27,259,nodeT)(n27,261,nodeT)(n27,262,nodeT)(n27,263,nodeT)(n27,266,nodeT)(n27,273,nodeT)(n28,0,nodeT)(n28,252,nodeT)(n28,253,nodeT)(n28,254,nodeT)(n28,256,nodeT)(n28,258,nodeT)(n28,259,nodeT)(n28,261,nodeT)(n28,262,nodeT)(n28,263,nodeT)(n28,266,nodeT)(n28,273,nodeT)(n28,275,nodeT)(n29,0,n4)(n29,252,n4)(n29,253,n7)(n29,254,n10)(n29,256,n10)(n29,258,n14)(n29,259,n16)(n29,261,n18)(n29,262,n18)(n29,263,n22)(n29,266,n22)(n29,273,n25)(n29,275,n27)(n29,276,n30)(n30,0,nodeT)(n30,252,nodeT)(n30,253,nodeT)(n30,254,nodeT)(n30,256,nodeT)(n30,258,nodeT)(n30,259,nodeT)(n30,261,nodeT)(n30,262,nodeT)(n30,263,nodeT)(n30,266,nodeT)(n30,273,nodeT)(n30,275,nodeT)(n30,276,nodeT)(n31,0,n4)(n31,252,n4)(n31,253,n7)(n31,254,n10)(n31,256,n10)(n31,258,n14)(n31,259,n16)(n31,261,n18)(n31,262,n18)(n31,263,n22)(n31,266,n22)(n31,273,n25)(n31,275,n27)(n31,276,n30)(n31,280,n30)(n32,0,n4)(n32,252,n4)(n32,253,n7)(n32,254,n10)(n32,256,n10)(n32,258,n14)(n32,259,n16)(n32,261,n18)(n32,262,n18)(n32,263,n22)(n32,266,n22)(n32,273,n25)(n32,275,n27)(n32,276,n30)(n32,280,n30)(n32,288,n33)(n33,0,nodeT)(n33,252,nodeT)(n33,253,nodeT)(n33,254,nodeT)(n33,256,nodeT)(n33,258,nodeT)(n33,259,nodeT)(n33,261,nodeT)(n33,262,nodeT)(n33,263,nodeT)(n33,266,nodeT)(n33,273,nodeT)(n33,275,nodeT)(n33,276,nodeT)(n33,280,nodeT)(n34,0,n4)(n34,252,n4)(n34,253,n7)(n34,254,n10)(n34,256,n10)(n34,258,n14)(n34,259,n16)(n34,261,n18)(n34,262,n18)(n34,263,n22)(n34,266,n22)(n34,273,n25)(n34,275,n27)(n34,276,n30)(n34,280,n30)(n34,288,n33)(n34,289,n35)(n35,0,nodeT)(n35,252,nodeT)(n35,253,nodeT)(n35,254,nodeT)(n35,256,nodeT)(n35,258,nodeT)(n35,259,nodeT)(n35,261,nodeT)(n35,262,nodeT)(n35,263,nodeT)(n35,266,nodeT)(n35,273,nodeT)(n35,275,nodeT)(n35,276,nodeT)(n35,280,nodeT)(n35,288,nodeT)(n36,0,n4)(n36,252,n4)(n36,253,n7)(n36,254,n10)(n36,256,n10)(n36,258,n14)(n36,259,n16)(n36,261,n18)(n36,262,n18)(n36,263,n22)(n36,266,n22)(n36,273,n25)(n36,275,n27)(n36,276,n30)(n36,280,n30)(n36,288,n33)(n36,289,n35)(n36,294,n37)(n37,0,nodeT)(n37,252,nodeT)(n37,253,nodeT)(n37,254,nodeT)(n37,256,nodeT)(n37,258,nodeT)(n37,259,nodeT)(n37,261,nodeT)(n37,262,nodeT)(n37,263,nodeT)(n37,266,nodeT)(n37,273,nodeT)(n37,275,nodeT)(n37,276,nodeT)(n37,280,nodeT)(n37,288,nodeT)(n37,289,nodeT)(n38,0,n4)(n38,252,n4)(n38,253,n7)(n38,254,n10)(n38,256,n10)(n38,258,n14)(n38,259,n16)(n38,261,n18)(n38,262,n18)(n38,263,n22)(n38,266,n22)(n38,273,n25)(n38,275,n27)(n38,276,n30)(n38,280,n30)(n38,288,n33)(n38,289,n35)(n38,294,n37)(n38,298,n39)(n38,304,n40)(n39,0,nodeT)(n39,252,nodeT)(n39,253,nodeT)(n39,254,nodeT)(n39,256,nodeT)(n39,258,nodeT)(n39,259,nodeT)(n39,261,nodeT)(n39,262,nodeT)(n39,263,nodeT)(n39,266,nodeT)(n39,273,nodeT)(n39,275,nodeT)(n39,276,nodeT)(n39,280,nodeT)(n39,288,nodeT)(n39,289,nodeT)(n39,294,nodeT)(n40,0,nodeT)(n40,252,nodeT)(n40,253,nodeT)(n40,254,nodeT)(n40,256,nodeT)(n40,258,nodeT)(n40,259,nodeT)(n40,261,nodeT)(n40,262,nodeT)(n40,263,nodeT)(n40,266,nodeT)(n40,273,nodeT)(n40,275,nodeT)(n40,276,nodeT)(n40,280,nodeT)(n40,288,nodeT)(n40,289,nodeT)(n40,294,nodeT)(n40,298,nodeT)(n40,304,nodeT)(n41,0,n4)(n41,252,n4)(n41,253,n7)(n41,254,n10)(n41,256,n10)(n41,258,n14)(n41,259,n16)(n41,261,n18)(n41,262,n18)(n41,263,n22)(n41,266,n22)(n41,273,n25)(n41,275,n27)(n41,276,n30)(n41,280,n30)(n41,288,n33)(n41,289,n35)(n41,294,n37)(n41,298,n39)(n41,304,n40)(n41,307,n40)(n42,0,n4)(n42,252,n4)(n42,253,n7)(n42,254,n10)(n42,256,n10)(n42,258,n14)(n42,259,n16)(n42,261,n18)(n42,262,n18)(n42,263,n22)(n42,266,n22)(n42,273,n25)(n42,275,n27)(n42,276,n30)(n42,280,n30)(n42,288,n33)(n42,289,n35)(n42,294,n37)(n42,298,n39)(n42,304,n40)(n42,307,n40)(n42,308,n43)(n43,0,nodeT)(n43,252,nodeT)(n43,253,nodeT)(n43,254,nodeT)(n43,256,nodeT)(n43,258,nodeT)(n43,259,nodeT)(n43,261,nodeT)(n43,262,nodeT)(n43,263,nodeT)(n43,266,nodeT)(n43,273,nodeT)(n43,275,nodeT)(n43,276,nodeT)(n43,280,nodeT)(n43,288,nodeT)(n43,289,nodeT)(n43,294,nodeT)(n43,298,nodeT)(n43,304,nodeT)(n43,307,nodeT)(n44,0,n4)(n44,252,n4)(n44,253,n7)(n44,254,n10)(n44,256,n10)(n44,258,n14)(n44,259,n16)(n44,261,n18)(n44,262,n18)(n44,263,n22)(n44,266,n22)(n44,273,n25)(n44,275,n27)(n44,276,n30)(n44,280,n30)(n44,288,n33)(n44,289,n35)(n44,294,n37)(n44,298,n39)(n44,304,n40)(n44,307,n40)(n44,308,n43)(n44,316,n45)(n44,319,n46)(n45,0,nodeT)(n45,252,nodeT)(n45,253,nodeT)(n45,254,nodeT)(n45,256,nodeT)(n45,258,nodeT)(n45,259,nodeT)(n45,261,nodeT)(n45,262,nodeT)(n45,263,nodeT)(n45,266,nodeT)(n45,273,nodeT)(n45,275,nodeT)(n45,276,nodeT)(n45,280,nodeT)(n45,288,nodeT)(n45,289,nodeT)(n45,294,nodeT)(n45,298,nodeT)(n45,304,nodeT)(n45,307,nodeT)(n45,308,nodeT)(n46,0,nodeT)(n46,252,nodeT)(n46,253,nodeT)(n46,254,nodeT)(n46,256,nodeT)(n46,258,nodeT)(n46,259,nodeT)(n46,261,nodeT)(n46,262,nodeT)(n46,263,nodeT)(n46,266,nodeT)(n46,273,nodeT)(n46,275,nodeT)(n46,276,nodeT)(n46,280,nodeT)(n46,288,nodeT)(n46,289,nodeT)(n46,294,nodeT)(n46,298,nodeT)(n46,304,nodeT)(n46,307,nodeT)(n46,308,nodeT)(n46,316,nodeT)(n47,0,n4)(n47,252,n4)(n47,253,n7)(n47,254,n10)(n47,256,n10)(n47,258,n14)(n47,259,n16)(n47,261,n18)(n47,262,n18)(n47,263,n22)(n47,266,n22)(n47,273,n25)(n47,275,n27)(n47,276,n30)(n47,280,n30)(n47,288,n33)(n47,289,n35)(n47,294,n37)(n47,298,n39)(n47,304,n40)(n47,307,n40)(n47,308,n43)(n47,316,n45)(n47,319,n48)(n48,0,nodeT)(n48,252,nodeT)(n48,253,nodeT)(n48,254,nodeT)(n48,256,nodeT)(n48,258,nodeT)(n48,259,nodeT)(n48,261,nodeT)(n48,262,nodeT)(n48,263,nodeT)(n48,266,nodeT)(n48,273,nodeT)(n48,275,nodeT)(n48,276,nodeT)(n48,280,nodeT)(n48,288,nodeT)(n48,289,nodeT)(n48,294,nodeT)(n48,298,nodeT)(n48,304,nodeT)(n48,307,nodeT)(n48,308,nodeT)(n48,316,nodeT)(n48,319,nodeT)(n49,0,n4)(n49,252,n4)(n49,253,n7)(n49,254,n10)(n49,256,n10)(n49,258,n14)(n49,259,n16)(n49,261,n18)(n49,262,n18)(n49,263,n22)(n49,266,n22)(n49,273,n25)(n49,275,n27)(n49,276,n30)(n49,280,n30)(n49,288,n33)(n49,289,n35)(n49,294,n37)(n49,298,n39)(n49,304,n40)(n49,307,n40)(n49,308,n43)(n49,316,n45)(n49,319,n48)(n49,332,n48)(n50,0,n4)(n50,252,n4)(n50,253,n7)(n50,254,n10)(n50,256,n10)(n50,258,n14)(n50,259,n16)(n50,261,n18)(n50,262,n18)(n50,263,n22)(n50,266,n22)(n50,273,n25)(n50,275,n27)(n50,276,n30)(n50,280,n30)(n50,288,n33)(n50,289,n35)(n50,294,n37)(n50,298,n39)(n50,304,n40)(n50,307,n40)(n50,308,n43)(n50,316,n45)(n50,319,n48)(n50,332,n48)(n50,337,n48)(n51,0,n4)(n51,252,n4)(n51,253,n7)(n51,254,n10)(n51,256,n10)(n51,258,n14)(n51,259,n16)(n51,261,n18)(n51,262,n18)(n51,263,n22)(n51,266,n22)(n51,273,n25)(n51,275,n27)(n51,276,n30)(n51,280,n30)(n51,288,n33)(n51,289,n35)(n51,294,n37)(n51,298,n39)(n51,304,n40)(n51,307,n40)(n51,308,n43)(n51,316,n45)(n51,319,n48)(n51,332,n46)(n51,337,n45)(n51,343,n40)(n52,0,n4)(n52,252,n4)(n52,253,n7)(n52,254,n10)(n52,256,n10)(n52,258,n14)(n52,259,n16)(n52,261,n18)(n52,262,n18)(n52,263,n22)(n52,266,n22)(n52,273,n25)(n52,275,n27)(n52,276,n30)(n52,280,n30)(n52,288,n33)(n52,289,n35)(n52,294,n37)(n52,298,n39)(n52,304,n40)(n52,307,n40)(n52,308,n43)(n52,316,n45)(n52,319,n48)(n52,332,n45)(n52,337,n40)(n52,343,n53)(n52,351,n37)(n52,359,n33)(n53,0,nodeT)(n53,252,nodeT)(n53,253,nodeT)(n53,254,nodeT)(n53,256,nodeT)(n53,258,nodeT)(n53,259,nodeT)(n53,261,nodeT)(n53,262,nodeT)(n53,263,nodeT)(n53,266,nodeT)(n53,273,nodeT)(n53,275,nodeT)(n53,276,nodeT)(n53,280,nodeT)(n53,288,nodeT)(n53,289,nodeT)(n53,294,nodeT)(n53,298,nodeT)(n54,0,n4)(n54,252,n4)(n54,253,n7)(n54,254,n10)(n54,256,n10)(n54,258,n14)(n54,259,n16)(n54,261,n18)(n54,262,n18)(n54,263,n22)(n54,266,n22)(n54,273,n25)(n54,275,n27)(n54,276,n30)(n54,280,n30)(n54,288,n33)(n54,289,n35)(n54,294,n37)(n54,298,n39)(n54,304,n40)(n54,307,n40)(n54,308,n43)(n54,316,n45)(n54,319,n46)(n54,332,n40)(n54,337,n53)(n54,343,n39)(n54,351,n33)(n54,359,n30)(n55,0,n4)(n55,252,n4)(n55,253,n7)(n55,254,n10)(n55,256,n10)(n55,258,n14)(n55,259,n16)(n55,261,n18)(n55,262,n18)(n55,263,n22)(n55,266,n22)(n55,273,n25)(n55,275,n27)(n55,276,n30)(n55,280,n30)(n55,288,n33)(n55,289,n35)(n55,294,n37)(n55,298,n39)(n55,304,n40)(n55,307,n40)(n55,308,n43)(n55,316,n45)(n55,319,n46)(n55,332,n40)(n55,337,n53)(n55,343,n37)(n55,351,n33)(n55,359,n30)(n55,363,n27)(n56,0,n4)(n56,252,n4)(n56,253,n7)(n56,254,n10)(n56,256,n10)(n56,258,n14)(n56,259,n16)(n56,261,n18)(n56,262,n18)(n56,263,n22)(n56,266,n22)(n56,273,n25)(n56,275,n27)(n56,276,n30)(n56,280,n30)(n56,288,n33)(n56,289,n35)(n56,294,n37)(n56,298,n39)(n56,304,n40)(n56,307,n40)(n56,308,n43)(n56,316,n45)(n56,319,n45)(n56,332,n53)(n56,337,n39)(n56,343,n35)(n56,351,n33)(n56,359,n25)(n56,363,n25)(n56,364,n25)(n56,369,n20)(n57,0,n4)(n57,252,n4)(n57,253,n7)(n57,254,n10)(n57,256,n10)(n57,258,n14)(n57,259,n16)(n57,261,n18)(n57,262,n18)(n57,263,n22)(n57,266,n22)(n57,273,n25)(n57,275,n27)(n57,276,n30)(n57,280,n30)(n57,288,n33)(n57,289,n35)(n57,294,n37)(n57,298,n39)(n57,304,n40)(n57,307,n40)(n57,308,n43)(n57,316,n45)(n57,319,n45)(n57,332,n39)(n57,337,n37)(n57,343,n33)(n57,351,n30)(n57,359,n25)(n57,363,n22)(n57,364,n22)(n57,369,n14)(n58,0,n4)(n58,252,n4)(n58,253,n7)(n58,254,n10)(n58,256,n10)(n58,258,n14)(n58,259,n16)(n58,261,n18)(n58,262,n18)(n58,263,n22)(n58,266,n22)(n58,273,n25)(n58,275,n27)(n58,276,n30)(n58,280,n30)(n58,288,n33)(n58,289,n35)(n58,294,n37)(n58,298,n39)(n58,304,n40)(n58,307,n40)(n58,308,n43)(n58,316,n45)(n58,319,n40)(n58,332,n37)(n58,337,n33)(n58,343,n33)(n58,351,n27)(n58,359,n22)(n58,363,n18)(n58,364,n16)(n58,369,n10)(n58,373,n4)(n59,0,n4)(n59,252,n4)(n59,253,n7)(n59,254,n10)(n59,256,n10)(n59,258,n14)(n59,259,n16)(n59,261,n18)(n59,262,n18)(n59,263,n22)(n59,266,n22)(n59,273,n25)(n59,275,n27)(n59,276,n30)(n59,280,n30)(n59,288,n33)(n59,289,n35)(n59,294,n37)(n59,298,n39)(n59,304,n40)(n59,307,n40)(n59,308,n43)(n59,316,n43)(n59,319,n40)(n59,332,n37)(n59,337,n33)(n59,343,n33)(n59,351,n25)(n59,359,n22)(n59,363,n16)(n59,364,n16)(n59,369,n10)(n59,373,n4)(n59,376,n4)(n60,0,n4)(n60,252,n4)(n60,253,n7)(n60,254,n10)(n60,256,n10)(n60,258,n14)(n60,259,n16)(n60,261,n18)(n60,262,n18)(n60,263,n22)(n60,266,n22)(n60,273,n25)(n60,275,n27)(n60,276,n30)(n60,280,n30)(n60,288,n33)(n60,289,n35)(n60,294,n37)(n60,298,n39)(n60,304,n40)(n60,307,n40)(n60,308,n43)(n60,316,n40)(n60,319,n53)(n60,332,n35)(n60,337,n33)(n60,343,n30)(n60,351,n25)(n60,359,n18)(n60,363,n12)(n60,364,n12)(n60,369,n4)(n60,373,n4)(n60,376,n4)(n60,377,n4)(n61,0,n4)(n61,252,n4)(n61,253,n7)(n61,254,n10)(n61,256,n10)(n61,258,n14)(n61,259,n16)(n61,261,n18)(n61,262,n18)(n61,263,n22)(n61,266,n22)(n61,273,n25)(n61,275,n27)(n61,276,n30)(n61,280,n30)(n61,288,n33)(n61,289,n35)(n61,294,n37)(n61,298,n39)(n61,304,n40)(n61,307,n40)(n61,308,n43)(n61,316,n53)(n61,319,n53)(n61,332,n33)(n61,337,n33)(n61,343,n28)(n61,351,n25)(n61,359,n16)(n61,363,n10)(n61,364,n10)(n61,369,n4)(n61,373,n4)(n61,376,n4)(n61,377,n4)(n61,380,n4)(n62,0,n4)(n62,252,n4)(n62,253,n7)(n62,254,n10)(n62,256,n10)(n62,258,n14)(n62,259,n16)(n62,261,n18)(n62,262,n18)(n62,263,n22)(n62,266,n22)(n62,273,n25)(n62,275,n27)(n62,276,n30)(n62,280,n30)(n62,288,n33)(n62,289,n35)(n62,294,n37)(n62,298,n39)(n62,304,n40)(n62,307,n53)(n62,308,n53)(n62,316,n37)(n62,319,n37)(n62,332,n30)(n62,337,n25)(n62,343,n25)(n62,351,n14)(n62,359,n4)(n62,363,n4)(n62,364,n4)(n62,369,n4)(n62,373,n4)(n62,376,n4)(n62,377,n4)(n62,380,n4)(n62,382,n4)(n63,0,n4)(n63,252,n4)(n63,253,n7)(n63,254,n10)(n63,256,n10)(n63,258,n14)(n63,259,n16)(n63,261,n18)(n63,262,n18)(n63,263,n22)(n63,266,n22)(n63,273,n25)(n63,275,n27)(n63,276,n30)(n63,280,n30)(n63,288,n33)(n63,289,n35)(n63,294,n37)(n63,298,n39)(n63,304,n53)(n63,307,n39)(n63,308,n39)(n63,316,n33)(n63,319,n33)(n63,332,n25)(n63,337,n25)(n63,343,n16)(n63,351,n7)(n63,359,n4)(n63,363,n4)(n63,364,n4)(n63,369,n4)(n63,373,n4)(n63,376,n4)(n63,377,n4)(n63,380,n4)(n63,382,n4)(n63,391,n4)(n64,0,n4)(n64,252,n4)(n64,253,n7)(n64,254,n10)(n64,256,n10)(n64,258,n14)(n64,259,n16)(n64,261,n18)(n64,262,n18)(n64,263,n22)(n64,266,n22)(n64,273,n25)(n64,275,n27)(n64,276,n30)(n64,280,n30)(n64,288,n33)(n64,289,n35)(n64,294,n37)(n64,298,n37)(n64,304,n33)(n64,307,n33)(n64,308,n33)(n64,316,n25)(n64,319,n25)(n64,332,n12)(n64,337,n4)(n64,343,n4)(n64,351,n4)(n64,359,n4)(n64,363,n4)(n64,364,n4)(n64,369,n4)(n64,373,n4)(n64,376,n4)(n64,377,n4)(n64,380,n4)(n64,382,n4)(n64,391,n4)(n64,397,n4)(n65,0,n4)(n65,252,n4)(n65,253,n7)(n65,254,n10)(n65,256,n10)(n65,258,n14)(n65,259,n16)(n65,261,n18)(n65,262,n18)(n65,263,n22)(n65,266,n22)(n65,273,n25)(n65,275,n27)(n65,276,n30)(n65,280,n30)(n65,288,n33)(n65,289,n35)(n65,294,n37)(n65,298,n33)(n65,304,n30)(n65,307,n30)(n65,308,n28)(n65,316,n25)(n65,319,n22)(n65,332,n4)(n65,337,n4)(n65,343,n4)(n65,351,n4)(n65,359,n4)(n65,363,n4)(n65,364,n4)(n65,369,n4)(n65,373,n4)(n65,376,n4)(n65,377,n4)(n65,380,n4)(n65,382,n4)(n65,391,n4)(n65,397,n4)(n65,412,n4)(n66,0,n4)(n66,252,n4)(n66,253,n7)(n66,254,n10)(n66,256,n10)(n66,258,n14)(n66,259,n16)(n66,261,n18)(n66,262,n18)(n66,263,n22)(n66,266,n22)(n66,273,n25)(n66,275,n27)(n66,276,n30)(n66,280,n30)(n66,288,n33)(n66,289,n33)(n66,294,n33)(n66,298,n30)(n66,304,n25)(n66,307,n25)(n66,308,n25)(n66,316,n14)(n66,319,n10)(n66,332,n4)(n66,337,n4)(n66,343,n4)(n66,351,n4)(n66,359,n4)(n66,363,n4)(n66,364,n4)(n66,369,n4)(n66,373,n4)(n66,376,n4)(n66,377,n4)(n66,380,n4)(n66,382,n4)(n66,391,n4)(n66,397,n4)(n66,412,n4)(n66,417,n4)(n67,0,n4)(n67,252,n4)(n67,253,n7)(n67,254,n10)(n67,256,n10)(n67,258,n14)(n67,259,n16)(n67,261,n18)(n67,262,n18)(n67,263,n22)(n67,266,n22)(n67,273,n25)(n67,275,n27)(n67,276,n30)(n67,280,n30)(n67,288,n33)(n67,289,n33)(n67,294,n30)(n67,298,n27)(n67,304,n25)(n67,307,n22)(n67,308,n22)(n67,316,n10)(n67,319,n7)(n67,332,n4)(n67,337,n4)(n67,343,n4)(n67,351,n4)(n67,359,n4)(n67,363,n4)(n67,364,n4)(n67,369,n4)(n67,373,n4)(n67,376,n4)(n67,377,n4)(n67,380,n4)(n67,382,n4)(n67,391,n4)(n67,397,n4)(n67,412,n4)(n67,417,n4)(n67,426,n4)(n68,0,n4)(n68,252,n4)(n68,253,n7)(n68,254,n10)(n68,256,n10)(n68,258,n14)(n68,259,n16)(n68,261,n18)(n68,262,n18)(n68,263,n22)(n68,266,n22)(n68,273,n25)(n68,275,n27)(n68,276,n30)(n68,280,n30)(n68,288,n25)(n68,289,n25)(n68,294,n22)(n68,298,n16)(n68,304,n10)(n68,307,n4)(n68,308,n4)(n68,316,n4)(n68,319,n4)(n68,332,n4)(n68,337,n4)(n68,343,n4)(n68,351,n4)(n68,359,n4)(n68,363,n4)(n68,364,n4)(n68,369,n4)(n68,373,n4)(n68,376,n4)(n68,377,n4)(n68,380,n4)(n68,382,n4)(n68,391,n4)(n68,397,n4)(n68,412,n4)(n68,417,n4)(n68,426,n4)(n68,429,n4)(n69,0,n4)(n69,252,n4)(n69,253,n7)(n69,254,n10)(n69,256,n10)(n69,258,n14)(n69,259,n16)(n69,261,n18)(n69,262,n18)(n69,263,n22)(n69,266,n22)(n69,273,n25)(n69,275,n27)(n69,276,n30)(n69,280,n30)(n69,288,n25)(n69,289,n25)(n69,294,n22)(n69,298,n16)(n69,304,n8)(n69,307,n4)(n69,308,n4)(n69,316,n4)(n69,319,n4)(n69,332,n4)(n69,337,n4)(n69,343,n4)(n69,351,n4)(n69,359,n4)(n69,363,n4)(n69,364,n4)(n69,369,n4)(n69,373,n4)(n69,376,n4)(n69,377,n4)(n69,380,n4)(n69,382,n4)(n69,391,n4)(n69,397,n4)(n69,412,n4)(n69,417,n4)(n69,426,n4)(n69,429,n4)(n69,442,n4)(n70,0,n4)(n70,252,n4)(n70,253,n7)(n70,254,n10)(n70,256,n10)(n70,258,n14)(n70,259,n16)(n70,261,n18)(n70,262,n18)(n70,263,n22)(n70,266,n22)(n70,273,n25)(n70,275,n27)(n70,276,n30)(n70,280,n28)(n70,288,n25)(n70,289,n25)(n70,294,n18)(n70,298,n12)(n70,304,n4)(n70,307,n4)(n70,308,n4)(n70,316,n4)(n70,319,n4)(n70,332,n4)(n70,337,n4)(n70,343,n4)(n70,351,n4)(n70,359,n4)(n70,363,n4)(n70,364,n4)(n70,369,n4)(n70,373,n4)(n70,376,n4)(n70,377,n4)(n70,380,n4)(n70,382,n4)(n70,391,n4)(n70,397,n4)(n70,412,n4)(n70,417,n4)(n70,426,n4)(n70,429,n4)(n70,442,n4)(n70,443,n4)(n71,0,n4)(n71,252,n4)(n71,253,n7)(n71,254,n10)(n71,256,n10)(n71,258,n14)(n71,259,n16)(n71,261,n18)(n71,262,n18)(n71,263,n22)(n71,266,n22)(n71,273,n25)(n71,275,n27)(n71,276,n27)(n71,280,n25)(n71,288,n18)(n71,289,n16)(n71,294,n10)(n71,298,n4)(n71,304,n4)(n71,307,n4)(n71,308,n4)(n71,316,n4)(n71,319,n4)(n71,332,n4)(n71,337,n4)(n71,343,n4)(n71,351,n4)(n71,359,n4)(n71,363,n4)(n71,364,n4)(n71,369,n4)(n71,373,n4)(n71,376,n4)(n71,377,n4)(n71,380,n4)(n71,382,n4)(n71,391,n4)(n71,397,n4)(n71,412,n4)(n71,417,n4)(n71,426,n4)(n71,429,n4)(n71,442,n4)(n71,443,n4)(n71,445,n4)(n72,0,n4)(n72,252,n4)(n72,253,n7)(n72,254,n10)(n72,256,n10)(n72,258,n14)(n72,259,n16)(n72,261,n18)(n72,262,n18)(n72,263,n22)(n72,266,n22)(n72,273,n25)(n72,275,n25)(n72,276,n25)(n72,280,n25)(n72,288,n16)(n72,289,n14)(n72,294,n8)(n72,298,n4)(n72,304,n4)(n72,307,n4)(n72,308,n4)(n72,316,n4)(n72,319,n4)(n72,332,n4)(n72,337,n4)(n72,343,n4)(n72,351,n4)(n72,359,n4)(n72,363,n4)(n72,364,n4)(n72,369,n4)(n72,373,n4)(n72,376,n4)(n72,377,n4)(n72,380,n4)(n72,382,n4)(n72,391,n4)(n72,397,n4)(n72,412,n4)(n72,417,n4)(n72,426,n4)(n72,429,n4)(n72,442,n4)(n72,443,n4)(n72,445,n4)(n72,451,n4)(n73,0,n4)(n73,252,n4)(n73,253,n7)(n73,254,n10)(n73,256,n10)(n73,258,n14)(n73,259,n16)(n73,261,n18)(n73,262,n18)(n73,263,n22)(n73,266,n22)(n73,273,n16)(n73,275,n12)(n73,276,n12)(n73,280,n7)(n73,288,n4)(n73,289,n4)(n73,294,n4)(n73,298,n4)(n73,304,n4)(n73,307,n4)(n73,308,n4)(n73,316,n4)(n73,319,n4)(n73,332,n4)(n73,337,n4)(n73,343,n4)(n73,351,n4)(n73,359,n4)(n73,363,n4)(n73,364,n4)(n73,369,n4)(n73,373,n4)(n73,376,n4)(n73,377,n4)(n73,380,n4)(n73,382,n4)(n73,391,n4)(n73,397,n4)(n73,412,n4)(n73,417,n4)(n73,426,n4)(n73,429,n4)(n73,442,n4)(n73,443,n4)(n73,445,n4)(n73,451,n4)(n73,453,n4)(n74,0,n4)(n74,252,n4)(n74,253,n7)(n74,254,n10)(n74,256,n10)(n74,258,n14)(n74,259,n14)(n74,261,n12)(n74,262,n10)(n74,263,n10)(n74,266,n4)(n74,273,n4)(n74,275,n4)(n74,276,n4)(n74,280,n4)(n74,288,n4)(n74,289,n4)(n74,294,n4)(n74,298,n4)(n74,304,n4)(n74,307,n4)(n74,308,n4)(n74,316,n4)(n74,319,n4)(n74,332,n4)(n74,337,n4)(n74,343,n4)(n74,351,n4)(n74,359,n4)(n74,363,n4)(n74,364,n4)(n74,369,n4)(n74,373,n4)(n74,376,n4)(n74,377,n4)(n74,380,n4)(n74,382,n4)(n74,391,n4)(n74,397,n4)(n74,412,n4)(n74,417,n4)(n74,426,n4)(n74,429,n4)(n74,442,n4)(n74,443,n4)(n74,445,n4)(n74,451,n4)(n74,453,n4)(n74,468,n4) </transitions>
      </mdd>
      <args> b[0][] </args>
      <args> b[1][] </args>
      <args> b[2][] </args>
      <args> b[3][] </args>
      <args> b[4][] </args>
      <args> b[5][] </args>
      <args> b[6][] </args>
      <args> b[7][] </args>
      <args> b[8][] </args>
      <args> b[9][] </args>
      <args> b[10][] </args>
      <args> b[11][] </args>
      <args> b[12][] </args>
      <args> b[13][] </args>
      <args> b[14][] </args>
      <args> b[15][] </args>
      <args> b[16][] </args>
      <args> b[17][] </args>
      <args> b[18][] </args>
      <args> b[19][] </args>
      <args> b[20][] </args>
      <args> b[21][] </args>
      <args> b[22][] </args>
      <args> b[23][] </args>
    </group>
    <cardinality>
      <list> b[][] </list>
      <values> 0 252 253 254 256 258 259 261 262 263 266 273 275 276 280 288 289 294 298 304 307 308 316 319 332 337 343 351 359 363 364 369 373 376 377 380 382 391 397 412 417 426 429 442 443 445 451 453 468 483 </values>
      <occurs> 12 1 1 2 1 2 2 2 1 2 1 1 1 2 1 1 1 1 1 3 1 1 1 2 1 1 1 1 2 1 1 2 1 1 1 1 1 1 1 1 1 1 1 1 1 1 1 1 1 1 </occurs>
    </cardinality>
    <lex class="symmetryBreaking">
      <list> b[0][] </list>
      <list> b[1][] </list>
      <list> b[2][] </list>
      <list> b[3][] </list>
      <list> b[4][] </list>
      <list> b[5][] </list>
      <list> b[6][] </list>
      <list> b[7][] </list>
      <list> b[8][] </list>
      <list> b[9][] </list>
      <list> b[10][] </list>
      <list> b[11][] </list>
      <list> b[12][] </list>
      <list> b[13][] </list>
      <list> b[14][] </list>
      <list> b[15][] </list>
      <list> b[16][] </list>
      <list> b[17][] </list>
      <list> b[18][] </list>
      <list> b[19][] </list>
      <list> b[20][] </list>
      <list> b[21][] </list>
      <list> b[22][] </list>
      <list> b[23][] </list>
      <operator> ge </operator>
    </lex>
    <count>
      <list> b[][0] </list>
      <values> 0 </values>
      <condition> (eq,x) </condition>
    </count>
  </constraints>
  <objectives>
    <maximize> x </maximize>
  </objectives>
</instance>
